[VALIDATOR STDOUT]
Checking plan: /home/jfan5/Safety-gen/runs/benchmark/optic/ferry_20260205_113042/ferry/optic_results/ferry-l27-c14-s27001.plan
Plan executed successfully - checking goal
Plan valid
Final value: 70 

Successful plans:
Value: 70
 /home/jfan5/Safety-gen/runs/benchmark/optic/ferry_20260205_113042/ferry/optic_results/ferry-l27-c14-s27001.plan 70
